(set-info :status unknown)
(declare-fun |ana_WillNotOverflowSignedAdd(%x, %y)| () (_ BitVec 1))
(declare-fun u_%sy () (_ BitVec 8))
(declare-fun u_%sx () (_ BitVec 8))
(declare-fun %y () (_ BitVec 18))
(declare-fun %x () (_ BitVec 18))
(assert
 (let (($x5179 (= |ana_WillNotOverflowSignedAdd(%x, %y)| (_ bv1 1))))
 (let (($x2690 (= (bvadd ((_ sign_extend 1) %x) ((_ sign_extend 1) %y)) ((_ sign_extend 1) (bvadd %x %y)))))
 (and (=> $x5179 $x2690) (or (= u_%sx (_ bv1 8)) (= u_%sy (_ bv1 8))) $x5179 false))))
(check-sat)
